
Log started (V11.0.0) Fri May 16 12:58:23 2008

Tried aggregator 1 time.
Reduced MIP has 250 rows, 10001 columns, and 20050 nonzeros.
Presolve time =    0.08 sec.
Clique table members: 200.
MIP emphasis: balance optimality and feasibility.
MIP search method: dynamic search.
Parallel mode: none, using 1 thread.
Root relaxation solution time =    0.47 sec.

        Nodes                                         Cuts/
   Node  Left     Objective  IInf  Best Integer     Best Node    ItCnt     Gap

*     0+    0                        19912.0000      145.5007      752   99.27%
*     0+    0                          197.0000      145.5007      752   26.14%
      0     0      146.3500    93      197.0000      Fract: 5      782   25.71%
*     0+    0                          191.0000      146.3500      782   23.38%
      0     0      152.0124   107      191.0000      Cuts: 35     1900   20.41%
*     0+    0                          189.0000      152.0124     1900   19.57%
      0     0      152.1312   108      189.0000       Cuts: 9     1957   19.51%
*     0+    0                          184.0000      152.1312     1957   17.32%
      0     0      152.1317   109      184.0000       Cuts: 9     2037   17.32%
      0     0      152.1319   110      184.0000       Cuts: 8     2081   17.32%
*     0+    0                          182.0000      152.1319     2081   16.41%
*     0+    0                          180.0000      152.1319     2081   15.48%
*     0+    0                          179.0000      152.1319     2081   15.01%
*     0+    0                          175.0000      152.1319     2081   13.07%
*     0+    0                          172.0000      152.1319     2081   11.55%
*     0+    0                          171.0000      152.1319     2081   11.03%
*     0+    0                          170.0000      152.1319     2081   10.51%
*     0+    0                          169.0000      152.1319     2081    9.98%
      0     2      152.1319   110      169.0000      152.1319     2081    9.98%
    100    91      153.0000    78      169.0000      152.1379     8759    9.98%
*   200+  174                          167.0000      152.1379    19891    8.90%
    200   176      154.0000    78      167.0000      152.1379    19891    8.90%
    300   251      154.0000    70      167.0000      152.1379    26692    8.90%
    400   309      154.0000    71      167.0000      152.1379    37281    8.90%
    500   372      154.0000    75      167.0000      152.1379    47111    8.90%
*   506+  249                          166.0000      159.5218    50021    3.90%
*   506+  165                          164.0000      159.5218    50021    2.73%
    600   196      162.0000    48      164.0000      160.0000    51657    2.44%
    700   194    infeasible            164.0000      160.0000    54379    2.44%
    800   241      163.0000    28      164.0000      160.0000    59254    2.44%
    900   322      163.0000    42      164.0000      160.0000    62698    2.44%
   1000   416      163.0000    24      164.0000      160.0000    65365    2.44%
Elapsed time =  78.34 sec. (tree size =  3.10 MB, solutions = 16)
   1100   510      163.0000    42      164.0000      160.0000    70358    2.44%
   1200   608      163.0000    25      164.0000      160.0000    75504    2.44%
   1300   681      163.0000    45      164.0000      160.0000    87890    2.44%
   1400   722        cutoff            164.0000      160.0000    94251    2.44%
   1500   622    infeasible            164.0000      163.0000   101684    0.61%
   1600   522        cutoff            164.0000      163.0000   120442    0.61%
   1700   422    infeasible            164.0000      163.0000   136989    0.61%
   1800   322        cutoff            164.0000      163.0000   146516    0.61%
   1900   222    infeasible            164.0000      163.0000   159404    0.61%
   2000   122    infeasible            164.0000      163.0000   165507    0.61%
Elapsed time = 123.45 sec. (tree size =  0.93 MB, solutions = 16)
   2100    22        cutoff            164.0000      163.0000   169698    0.61%

Clique cuts applied:  2
Cover cuts applied:  62
Implied bound cuts applied:  16
Mixed integer rounding cuts applied:  16
Gomory fractional cuts applied:  2

Solution pool: 16 solutions saved.

MIP - Integer optimal solution:  Objective = 1.6400000000e+002
Solution time =  125.91 sec.  Iterations = 170601  Nodes = 2123


Incumbent solution
Variable Name           Solution Value
Cmax                        164.000000
X_1_22                        1.000000
X_2_17                        1.000000
X_3_16                        1.000000
X_4_21                        1.000000
X_5_6                         1.000000
X_6_29                        1.000000
X_7_24                        1.000000
X_8_8                         1.000000
X_9_28                        1.000000
X_10_11                       1.000000
X_11_38                       1.000000
X_12_49                       1.000000
X_13_8                        1.000000
X_14_4                        1.000000
X_15_34                       1.000000
X_16_8                        1.000000
X_17_40                       1.000000
X_18_15                       1.000000
X_19_31                       1.000000
X_20_8                        1.000000
X_21_11                       1.000000
X_22_28                       1.000000
X_23_24                       1.000000
X_24_8                        1.000000
X_25_48                       1.000000
X_26_3                        1.000000
X_27_46                       1.000000
X_28_24                       1.000000
X_29_36                       1.000000
X_30_32                       1.000000
X_31_3                        1.000000
X_32_46                       1.000000
X_33_18                       1.000000
X_34_6                        1.000000
X_35_8                        1.000000
X_36_48                       1.000000
X_37_39                       1.000000
X_38_34                       1.000000
X_39_23                       1.000000
X_40_45                       1.000000
X_41_35                       1.000000
X_42_26                       1.000000
X_43_42                       1.000000
X_44_26                       1.000000
X_45_36                       1.000000
X_46_23                       1.000000
X_47_35                       1.000000
X_48_17                       1.000000
X_49_44                       1.000000
X_50_44                       1.000000
X_51_41                       1.000000
X_52_3                        1.000000
X_53_5                        1.000000
X_54_35                       1.000000
X_55_10                       1.000000
X_56_7                        1.000000
X_57_16                       1.000000
X_58_26                       1.000000
X_59_28                       1.000000
X_60_11                       1.000000
X_61_11                       1.000000
X_62_11                       1.000000
X_63_39                       1.000000
X_64_32                       1.000000
X_65_4                        1.000000
X_66_8                        1.000000
X_67_41                       1.000000
X_68_46                       1.000000
X_69_32                       1.000000
X_70_38                       1.000000
X_71_48                       1.000000
X_72_8                        1.000000
X_73_10                       1.000000
X_74_36                       1.000000
X_75_32                       1.000000
X_76_6                        1.000000
X_77_5                        1.000000
X_78_46                       1.000000
X_79_15                       1.000000
X_80_24                       1.000000
X_81_9                        1.000000
X_82_19                       1.000000
X_83_11                       1.000000
X_84_27                       1.000000
X_85_19                       1.000000
X_86_3                        1.000000
X_87_13                       1.000000
X_88_44                       1.000000
X_89_48                       1.000000
X_90_3                        1.000000
X_91_32                       1.000000
X_92_8                        1.000000
X_93_4                        1.000000
X_94_23                       1.000000
X_95_8                        1.000000
X_96_2                        1.000000
X_97_14                       1.000000
X_98_35                       1.000000
X_99_28                       1.000000
X_100_6                       1.000000
X_101_8                       1.000000
X_102_15                      1.000000
X_103_46                      1.000000
X_104_5                       1.000000
X_105_32                      1.000000
X_106_20                      1.000000
X_107_8                       1.000000
X_108_48                      1.000000
X_109_19                      1.000000
X_110_30                      1.000000
X_111_32                      1.000000
X_112_12                      1.000000
X_113_8                       1.000000
X_114_43                      1.000000
X_115_38                      1.000000
X_116_8                       1.000000
X_117_24                      1.000000
X_118_11                      1.000000
X_119_33                      1.000000
X_120_19                      1.000000
X_121_24                      1.000000
X_122_6                       1.000000
X_123_11                      1.000000
X_124_40                      1.000000
X_125_33                      1.000000
X_126_39                      1.000000
X_127_26                      1.000000
X_128_6                       1.000000
X_129_13                      1.000000
X_130_50                      1.000000
X_131_30                      1.000000
X_132_29                      1.000000
X_133_8                       1.000000
X_134_15                      1.000000
X_135_13                      1.000000
X_136_34                      1.000000
X_137_25                      1.000000
X_138_9                       1.000000
X_139_45                      1.000000
X_140_40                      1.000000
X_141_1                       1.000000
X_142_8                       1.000000
X_143_24                      1.000000
X_144_24                      1.000000
X_145_40                      1.000000
X_146_8                       1.000000
X_147_10                      1.000000
X_148_43                      1.000000
X_149_10                      1.000000
X_150_11                      1.000000
X_151_26                      1.000000
X_152_8                       1.000000
X_153_8                       1.000000
X_154_15                      1.000000
X_155_8                       1.000000
X_156_37                      1.000000
X_157_43                      1.000000
X_158_26                      1.000000
X_159_3                       1.000000
X_160_1                       1.000000
X_161_48                      1.000000
X_162_1                       1.000000
X_163_37                      1.000000
X_164_26                      1.000000
X_165_12                      1.000000
X_166_48                      1.000000
X_167_32                      1.000000
X_168_46                      1.000000
X_169_43                      1.000000
X_170_11                      1.000000
X_171_20                      1.000000
X_172_4                       1.000000
X_173_1                       1.000000
X_174_27                      1.000000
X_175_38                      1.000000
X_176_22                      1.000000
X_177_43                      1.000000
X_178_8                       1.000000
X_179_8                       1.000000
X_180_29                      1.000000
X_181_2                       1.000000
X_182_33                      1.000000
X_183_47                      1.000000
X_184_7                       1.000000
X_185_15                      1.000000
X_186_38                      1.000000
X_187_39                      1.000000
X_188_49                      1.000000
X_189_12                      1.000000
X_190_43                      1.000000
X_191_23                      1.000000
X_192_15                      1.000000
X_193_30                      1.000000
X_194_8                       1.000000
X_195_23                      1.000000
X_196_26                      1.000000
X_197_26                      1.000000
X_198_45                      1.000000
X_199_36                      1.000000
X_200_14                      1.000000
All other variables in the range 1-10001 are 0.
